
Gurobi 13.0.2 (win64) logging started Thu Jul 23 16:06:45 2026

Set parameter LogFile to value "E:\codes\ExactEBRP\results\gf_gurobi_performance_recovery_round29\runs\stage2__high_imbalance_seed4201__c3_replica__300s\external\native_logs\R.1.0.0.0.1.0.0.1.0_lp.gurobi.log"
Gurobi Optimizer version 13.0.2 build v13.0.2rc1 (win64 - Windows 10.0 (19045.2))

CPU model: 12th Gen Intel(R) Core(TM) i7-12700KF, instruction set [SSE2|AVX|AVX2]
Thread count: 12 physical cores, 20 logical processors, using up to 1 threads

Non-default parameters:
TimeLimit  245.4123016
MIPGap  0
MIPGapAbs  0
LogToConsole  0
Threads  1

Optimize a model with 11902 rows, 3374 columns and 67341 nonzeros (Min)
Model fingerprint: 0x38368396
Model has 21 linear objective coefficients
Coefficient statistics:
  Matrix range     [1e-02, 2e+04]
  Objective range  [1e-02, 1e+00]
  Bounds range     [5e-01, 2e+03]
  RHS range        [5e-01, 5e+04]

Presolve removed 1621 rows and 108 columns
Presolve time: 0.03s
Presolved: 10281 rows, 3267 columns, 52357 nonzeros

Iteration    Objective       Primal Inf.    Dual Inf.      Time
       0    2.2490348e+00   6.661512e+02   0.000000e+00      0s
    3290    2.6896611e+00   0.000000e+00   0.000000e+00      0s

Solved in 3290 iterations and 0.23 seconds (0.67 work units)
Optimal objective  2.689661117e+00

User-callback calls 3433, time in user-callback 0.00 sec
